p cnf 775 3020
1 2 3 4 5 0
-1 -2 0
-1 -3 0
-1 -4 0
-1 -5 0
-2 -3 0
-2 -4 0
-2 -5 0
-3 -4 0
-3 -5 0
-4 -5 0
6 7 8 9 10 0
-6 -7 0
-6 -8 0
-6 -9 0
-6 -10 0
-7 -8 0
-7 -9 0
-7 -10 0
-8 -9 0
-8 -10 0
-9 -10 0
11 12 13 14 15 0
-11 -12 0
-11 -13 0
-11 -14 0
-11 -15 0
-12 -13 0
-12 -14 0
-12 -15 0
-13 -14 0
-13 -15 0
-14 -15 0
16 17 18 19 20 0
-16 -17 0
-16 -18 0
-16 -19 0
-16 -20 0
-17 -18 0
-17 -19 0
-17 -20 0
-18 -19 0
-18 -20 0
-19 -20 0
21 22 23 24 25 0
-21 -22 0
-21 -23 0
-21 -24 0
-21 -25 0
-22 -23 0
-22 -24 0
-22 -25 0
-23 -24 0
-23 -25 0
-24 -25 0
26 27 28 29 30 0
-26 -27 0
-26 -28 0
-26 -29 0
-26 -30 0
-27 -28 0
-27 -29 0
-27 -30 0
-28 -29 0
-28 -30 0
-29 -30 0
31 32 33 34 35 0
-31 -32 0
-31 -33 0
-31 -34 0
-31 -35 0
-32 -33 0
-32 -34 0
-32 -35 0
-33 -34 0
-33 -35 0
-34 -35 0
36 37 38 39 40 0
-36 -37 0
-36 -38 0
-36 -39 0
-36 -40 0
-37 -38 0
-37 -39 0
-37 -40 0
-38 -39 0
-38 -40 0
-39 -40 0
41 42 43 44 45 0
-41 -42 0
-41 -43 0
-41 -44 0
-41 -45 0
-42 -43 0
-42 -44 0
-42 -45 0
-43 -44 0
-43 -45 0
-44 -45 0
46 47 48 49 50 0
-46 -47 0
-46 -48 0
-46 -49 0
-46 -50 0
-47 -48 0
-47 -49 0
-47 -50 0
-48 -49 0
-48 -50 0
-49 -50 0
51 52 53 54 55 0
-51 -52 0
-51 -53 0
-51 -54 0
-51 -55 0
-52 -53 0
-52 -54 0
-52 -55 0
-53 -54 0
-53 -55 0
-54 -55 0
56 57 58 59 60 0
-56 -57 0
-56 -58 0
-56 -59 0
-56 -60 0
-57 -58 0
-57 -59 0
-57 -60 0
-58 -59 0
-58 -60 0
-59 -60 0
61 62 63 64 65 0
-61 -62 0
-61 -63 0
-61 -64 0
-61 -65 0
-62 -63 0
-62 -64 0
-62 -65 0
-63 -64 0
-63 -65 0
-64 -65 0
66 67 68 69 70 0
-66 -67 0
-66 -68 0
-66 -69 0
-66 -70 0
-67 -68 0
-67 -69 0
-67 -70 0
-68 -69 0
-68 -70 0
-69 -70 0
71 72 73 74 75 0
-71 -72 0
-71 -73 0
-71 -74 0
-71 -75 0
-72 -73 0
-72 -74 0
-72 -75 0
-73 -74 0
-73 -75 0
-74 -75 0
76 77 78 79 80 0
-76 -77 0
-76 -78 0
-76 -79 0
-76 -80 0
-77 -78 0
-77 -79 0
-77 -80 0
-78 -79 0
-78 -80 0
-79 -80 0
81 82 83 84 85 0
-81 -82 0
-81 -83 0
-81 -84 0
-81 -85 0
-82 -83 0
-82 -84 0
-82 -85 0
-83 -84 0
-83 -85 0
-84 -85 0
86 87 88 89 90 0
-86 -87 0
-86 -88 0
-86 -89 0
-86 -90 0
-87 -88 0
-87 -89 0
-87 -90 0
-88 -89 0
-88 -90 0
-89 -90 0
91 92 93 94 95 0
-91 -92 0
-91 -93 0
-91 -94 0
-91 -95 0
-92 -93 0
-92 -94 0
-92 -95 0
-93 -94 0
-93 -95 0
-94 -95 0
96 97 98 99 100 0
-96 -97 0
-96 -98 0
-96 -99 0
-96 -100 0
-97 -98 0
-97 -99 0
-97 -100 0
-98 -99 0
-98 -100 0
-99 -100 0
101 102 103 104 105 0
-101 -102 0
-101 -103 0
-101 -104 0
-101 -105 0
-102 -103 0
-102 -104 0
-102 -105 0
-103 -104 0
-103 -105 0
-104 -105 0
106 107 108 109 110 0
-106 -107 0
-106 -108 0
-106 -109 0
-106 -110 0
-107 -108 0
-107 -109 0
-107 -110 0
-108 -109 0
-108 -110 0
-109 -110 0
111 112 113 114 115 0
-111 -112 0
-111 -113 0
-111 -114 0
-111 -115 0
-112 -113 0
-112 -114 0
-112 -115 0
-113 -114 0
-113 -115 0
-114 -115 0
116 117 118 119 120 0
-116 -117 0
-116 -118 0
-116 -119 0
-116 -120 0
-117 -118 0
-117 -119 0
-117 -120 0
-118 -119 0
-118 -120 0
-119 -120 0
121 122 123 124 125 0
-121 -122 0
-121 -123 0
-121 -124 0
-121 -125 0
-122 -123 0
-122 -124 0
-122 -125 0
-123 -124 0
-123 -125 0
-124 -125 0
126 127 128 129 130 0
-126 -127 0
-126 -128 0
-126 -129 0
-126 -130 0
-127 -128 0
-127 -129 0
-127 -130 0
-128 -129 0
-128 -130 0
-129 -130 0
131 132 133 134 135 0
-131 -132 0
-131 -133 0
-131 -134 0
-131 -135 0
-132 -133 0
-132 -134 0
-132 -135 0
-133 -134 0
-133 -135 0
-134 -135 0
136 137 138 139 140 0
-136 -137 0
-136 -138 0
-136 -139 0
-136 -140 0
-137 -138 0
-137 -139 0
-137 -140 0
-138 -139 0
-138 -140 0
-139 -140 0
141 142 143 144 145 0
-141 -142 0
-141 -143 0
-141 -144 0
-141 -145 0
-142 -143 0
-142 -144 0
-142 -145 0
-143 -144 0
-143 -145 0
-144 -145 0
146 147 148 149 150 0
-146 -147 0
-146 -148 0
-146 -149 0
-146 -150 0
-147 -148 0
-147 -149 0
-147 -150 0
-148 -149 0
-148 -150 0
-149 -150 0
151 152 153 154 155 0
-151 -152 0
-151 -153 0
-151 -154 0
-151 -155 0
-152 -153 0
-152 -154 0
-152 -155 0
-153 -154 0
-153 -155 0
-154 -155 0
156 157 158 159 160 0
-156 -157 0
-156 -158 0
-156 -159 0
-156 -160 0
-157 -158 0
-157 -159 0
-157 -160 0
-158 -159 0
-158 -160 0
-159 -160 0
161 162 163 164 165 0
-161 -162 0
-161 -163 0
-161 -164 0
-161 -165 0
-162 -163 0
-162 -164 0
-162 -165 0
-163 -164 0
-163 -165 0
-164 -165 0
166 167 168 169 170 0
-166 -167 0
-166 -168 0
-166 -169 0
-166 -170 0
-167 -168 0
-167 -169 0
-167 -170 0
-168 -169 0
-168 -170 0
-169 -170 0
171 172 173 174 175 0
-171 -172 0
-171 -173 0
-171 -174 0
-171 -175 0
-172 -173 0
-172 -174 0
-172 -175 0
-173 -174 0
-173 -175 0
-174 -175 0
1 6 11 16 21 0
-1 -6 0
-1 -11 0
-1 -16 0
-1 -21 0
-6 -11 0
-6 -16 0
-6 -21 0
-11 -16 0
-11 -21 0
-16 -21 0
26 31 36 41 46 0
-26 -31 0
-26 -36 0
-26 -41 0
-26 -46 0
-31 -36 0
-31 -41 0
-31 -46 0
-36 -41 0
-36 -46 0
-41 -46 0
51 56 61 66 71 0
-51 -56 0
-51 -61 0
-51 -66 0
-51 -71 0
-56 -61 0
-56 -66 0
-56 -71 0
-61 -66 0
-61 -71 0
-66 -71 0
76 81 86 91 96 0
-76 -81 0
-76 -86 0
-76 -91 0
-76 -96 0
-81 -86 0
-81 -91 0
-81 -96 0
-86 -91 0
-86 -96 0
-91 -96 0
101 106 111 116 121 0
-101 -106 0
-101 -111 0
-101 -116 0
-101 -121 0
-106 -111 0
-106 -116 0
-106 -121 0
-111 -116 0
-111 -121 0
-116 -121 0
126 131 136 141 146 0
-126 -131 0
-126 -136 0
-126 -141 0
-126 -146 0
-131 -136 0
-131 -141 0
-131 -146 0
-136 -141 0
-136 -146 0
-141 -146 0
151 156 161 166 171 0
-151 -156 0
-151 -161 0
-151 -166 0
-151 -171 0
-156 -161 0
-156 -166 0
-156 -171 0
-161 -166 0
-161 -171 0
-166 -171 0
2 7 12 17 22 0
-2 -7 0
-2 -12 0
-2 -17 0
-2 -22 0
-7 -12 0
-7 -17 0
-7 -22 0
-12 -17 0
-12 -22 0
-17 -22 0
27 32 37 42 47 0
-27 -32 0
-27 -37 0
-27 -42 0
-27 -47 0
-32 -37 0
-32 -42 0
-32 -47 0
-37 -42 0
-37 -47 0
-42 -47 0
52 57 62 67 72 0
-52 -57 0
-52 -62 0
-52 -67 0
-52 -72 0
-57 -62 0
-57 -67 0
-57 -72 0
-62 -67 0
-62 -72 0
-67 -72 0
77 82 87 92 97 0
-77 -82 0
-77 -87 0
-77 -92 0
-77 -97 0
-82 -87 0
-82 -92 0
-82 -97 0
-87 -92 0
-87 -97 0
-92 -97 0
102 107 112 117 122 0
-102 -107 0
-102 -112 0
-102 -117 0
-102 -122 0
-107 -112 0
-107 -117 0
-107 -122 0
-112 -117 0
-112 -122 0
-117 -122 0
127 132 137 142 147 0
-127 -132 0
-127 -137 0
-127 -142 0
-127 -147 0
-132 -137 0
-132 -142 0
-132 -147 0
-137 -142 0
-137 -147 0
-142 -147 0
152 157 162 167 172 0
-152 -157 0
-152 -162 0
-152 -167 0
-152 -172 0
-157 -162 0
-157 -167 0
-157 -172 0
-162 -167 0
-162 -172 0
-167 -172 0
3 8 13 18 23 0
-3 -8 0
-3 -13 0
-3 -18 0
-3 -23 0
-8 -13 0
-8 -18 0
-8 -23 0
-13 -18 0
-13 -23 0
-18 -23 0
28 33 38 43 48 0
-28 -33 0
-28 -38 0
-28 -43 0
-28 -48 0
-33 -38 0
-33 -43 0
-33 -48 0
-38 -43 0
-38 -48 0
-43 -48 0
53 58 63 68 73 0
-53 -58 0
-53 -63 0
-53 -68 0
-53 -73 0
-58 -63 0
-58 -68 0
-58 -73 0
-63 -68 0
-63 -73 0
-68 -73 0
78 83 88 93 98 0
-78 -83 0
-78 -88 0
-78 -93 0
-78 -98 0
-83 -88 0
-83 -93 0
-83 -98 0
-88 -93 0
-88 -98 0
-93 -98 0
103 108 113 118 123 0
-103 -108 0
-103 -113 0
-103 -118 0
-103 -123 0
-108 -113 0
-108 -118 0
-108 -123 0
-113 -118 0
-113 -123 0
-118 -123 0
128 133 138 143 148 0
-128 -133 0
-128 -138 0
-128 -143 0
-128 -148 0
-133 -138 0
-133 -143 0
-133 -148 0
-138 -143 0
-138 -148 0
-143 -148 0
153 158 163 168 173 0
-153 -158 0
-153 -163 0
-153 -168 0
-153 -173 0
-158 -163 0
-158 -168 0
-158 -173 0
-163 -168 0
-163 -173 0
-168 -173 0
4 9 14 19 24 0
-4 -9 0
-4 -14 0
-4 -19 0
-4 -24 0
-9 -14 0
-9 -19 0
-9 -24 0
-14 -19 0
-14 -24 0
-19 -24 0
29 34 39 44 49 0
-29 -34 0
-29 -39 0
-29 -44 0
-29 -49 0
-34 -39 0
-34 -44 0
-34 -49 0
-39 -44 0
-39 -49 0
-44 -49 0
54 59 64 69 74 0
-54 -59 0
-54 -64 0
-54 -69 0
-54 -74 0
-59 -64 0
-59 -69 0
-59 -74 0
-64 -69 0
-64 -74 0
-69 -74 0
79 84 89 94 99 0
-79 -84 0
-79 -89 0
-79 -94 0
-79 -99 0
-84 -89 0
-84 -94 0
-84 -99 0
-89 -94 0
-89 -99 0
-94 -99 0
104 109 114 119 124 0
-104 -109 0
-104 -114 0
-104 -119 0
-104 -124 0
-109 -114 0
-109 -119 0
-109 -124 0
-114 -119 0
-114 -124 0
-119 -124 0
129 134 139 144 149 0
-129 -134 0
-129 -139 0
-129 -144 0
-129 -149 0
-134 -139 0
-134 -144 0
-134 -149 0
-139 -144 0
-139 -149 0
-144 -149 0
154 159 164 169 174 0
-154 -159 0
-154 -164 0
-154 -169 0
-154 -174 0
-159 -164 0
-159 -169 0
-159 -174 0
-164 -169 0
-164 -174 0
-169 -174 0
5 10 15 20 25 0
-5 -10 0
-5 -15 0
-5 -20 0
-5 -25 0
-10 -15 0
-10 -20 0
-10 -25 0
-15 -20 0
-15 -25 0
-20 -25 0
30 35 40 45 50 0
-30 -35 0
-30 -40 0
-30 -45 0
-30 -50 0
-35 -40 0
-35 -45 0
-35 -50 0
-40 -45 0
-40 -50 0
-45 -50 0
55 60 65 70 75 0
-55 -60 0
-55 -65 0
-55 -70 0
-55 -75 0
-60 -65 0
-60 -70 0
-60 -75 0
-65 -70 0
-65 -75 0
-70 -75 0
80 85 90 95 100 0
-80 -85 0
-80 -90 0
-80 -95 0
-80 -100 0
-85 -90 0
-85 -95 0
-85 -100 0
-90 -95 0
-90 -100 0
-95 -100 0
105 110 115 120 125 0
-105 -110 0
-105 -115 0
-105 -120 0
-105 -125 0
-110 -115 0
-110 -120 0
-110 -125 0
-115 -120 0
-115 -125 0
-120 -125 0
130 135 140 145 150 0
-130 -135 0
-130 -140 0
-130 -145 0
-130 -150 0
-135 -140 0
-135 -145 0
-135 -150 0
-140 -145 0
-140 -150 0
-145 -150 0
155 160 165 170 175 0
-155 -160 0
-155 -165 0
-155 -170 0
-155 -175 0
-160 -165 0
-160 -170 0
-160 -175 0
-165 -170 0
-165 -175 0
-170 -175 0
176 177 178 179 180 181 182 183 184 185 186 187 188 189 190 191 192 193 194 195 0
196 197 198 199 200 201 202 203 204 205 206 207 208 209 210 211 212 213 214 215 0
216 217 218 219 220 221 222 223 224 225 226 227 228 229 230 231 232 233 234 235 0
236 237 238 239 240 241 242 243 244 245 246 247 248 249 250 251 252 253 254 255 0
256 257 258 259 260 261 262 263 264 265 266 267 268 269 270 271 272 273 274 275 0
276 277 278 279 280 281 282 283 284 285 286 287 288 289 290 291 292 293 294 295 0
296 297 298 299 300 301 302 303 304 305 306 307 308 309 310 311 312 313 314 315 0
316 317 318 319 320 321 322 323 324 325 326 327 328 329 330 331 332 333 334 335 0
336 337 338 339 340 341 342 343 344 345 346 347 348 349 350 351 352 353 354 355 0
356 357 358 359 360 361 362 363 364 365 366 367 368 369 370 371 372 373 374 375 0
376 377 378 379 380 381 382 383 384 385 386 387 388 389 390 391 392 393 394 395 0
396 397 398 399 400 401 402 403 404 405 406 407 408 409 410 411 412 413 414 415 0
416 417 418 419 420 421 422 423 424 425 426 427 428 429 430 431 432 433 434 435 0
436 437 438 439 440 441 442 443 444 445 446 447 448 449 450 451 452 453 454 455 0
456 457 458 459 460 461 462 463 464 465 466 467 468 469 470 471 472 473 474 475 0
476 477 478 479 480 481 482 483 484 485 486 487 488 489 490 491 492 493 494 495 0
496 497 498 499 500 501 502 503 504 505 506 507 508 509 510 511 512 513 514 515 0
516 517 518 519 520 521 522 523 524 525 526 527 528 529 530 531 532 533 534 535 0
536 537 538 539 540 541 542 543 544 545 546 547 548 549 550 551 552 553 554 555 0
556 557 558 559 560 561 562 563 564 565 566 567 568 569 570 571 572 573 574 575 0
576 577 578 579 580 581 582 583 584 585 586 587 588 589 590 591 592 593 594 595 0
596 597 598 599 600 601 602 603 604 605 606 607 608 609 610 611 612 613 614 615 0
616 617 618 619 620 621 622 623 624 625 626 627 628 629 630 631 632 633 634 635 0
636 637 638 639 640 641 642 643 644 645 646 647 648 649 650 651 652 653 654 655 0
656 657 658 659 660 661 662 663 664 665 666 667 668 669 670 671 672 673 674 675 0
676 677 678 679 680 681 682 683 684 685 686 687 688 689 690 691 692 693 694 695 0
696 697 698 699 700 701 702 703 704 705 706 707 708 709 710 711 712 713 714 715 0
716 717 718 719 720 721 722 723 724 725 726 727 728 729 730 731 732 733 734 735 0
736 737 738 739 740 741 742 743 744 745 746 747 748 749 750 751 752 753 754 755 0
756 757 758 759 760 761 762 763 764 765 766 767 768 769 770 771 772 773 774 775 0
176 296 416 536 656 196 316 436 556 676 216 336 456 576 696 236 356 476 596 716 256 376 496 616 736 276 396 516 636 756 0
177 297 417 537 657 197 317 437 557 677 217 337 457 577 697 237 357 477 597 717 257 377 497 617 737 277 397 517 637 757 0
178 298 418 538 658 198 318 438 558 678 218 338 458 578 698 238 358 478 598 718 258 378 498 618 738 278 398 518 638 758 0
179 299 419 539 659 199 319 439 559 679 219 339 459 579 699 239 359 479 599 719 259 379 499 619 739 279 399 519 639 759 0
180 300 420 540 660 200 320 440 560 680 220 340 460 580 700 240 360 480 600 720 260 380 500 620 740 280 400 520 640 760 0
181 301 421 541 661 201 321 441 561 681 221 341 461 581 701 241 361 481 601 721 261 381 501 621 741 281 401 521 641 761 0
182 302 422 542 662 202 322 442 562 682 222 342 462 582 702 242 362 482 602 722 262 382 502 622 742 282 402 522 642 762 0
183 303 423 543 663 203 323 443 563 683 223 343 463 583 703 243 363 483 603 723 263 383 503 623 743 283 403 523 643 763 0
184 304 424 544 664 204 324 444 564 684 224 344 464 584 704 244 364 484 604 724 264 384 504 624 744 284 404 524 644 764 0
185 305 425 545 665 205 325 445 565 685 225 345 465 585 705 245 365 485 605 725 265 385 505 625 745 285 405 525 645 765 0
186 306 426 546 666 206 326 446 566 686 226 346 466 586 706 246 366 486 606 726 266 386 506 626 746 286 406 526 646 766 0
187 307 427 547 667 207 327 447 567 687 227 347 467 587 707 247 367 487 607 727 267 387 507 627 747 287 407 527 647 767 0
188 308 428 548 668 208 328 448 568 688 228 348 468 588 708 248 368 488 608 728 268 388 508 628 748 288 408 528 648 768 0
189 309 429 549 669 209 329 449 569 689 229 349 469 589 709 249 369 489 609 729 269 389 509 629 749 289 409 529 649 769 0
190 310 430 550 670 210 330 450 570 690 230 350 470 590 710 250 370 490 610 730 270 390 510 630 750 290 410 530 650 770 0
191 311 431 551 671 211 331 451 571 691 231 351 471 591 711 251 371 491 611 731 271 391 511 631 751 291 411 531 651 771 0
192 312 432 552 672 212 332 452 572 692 232 352 472 592 712 252 372 492 612 732 272 392 512 632 752 292 412 532 652 772 0
193 313 433 553 673 213 333 453 573 693 233 353 473 593 713 253 373 493 613 733 273 393 513 633 753 293 413 533 653 773 0
194 314 434 554 674 214 334 454 574 694 234 354 474 594 714 254 374 494 614 734 274 394 514 634 754 294 414 534 654 774 0
195 315 435 555 675 215 335 455 575 695 235 355 475 595 715 255 375 495 615 735 275 395 515 635 755 295 415 535 655 775 0
-1 -31 176 0
-26 -56 196 0
-51 -81 216 0
-76 -106 236 0
-101 -131 256 0
-126 -156 276 0
-1 -36 177 0
-26 -61 197 0
-51 -86 217 0
-76 -111 237 0
-101 -136 257 0
-126 -161 277 0
-1 -41 178 0
-26 -66 198 0
-51 -91 218 0
-76 -116 238 0
-101 -141 258 0
-126 -166 278 0
-1 -46 179 0
-26 -71 199 0
-51 -96 219 0
-76 -121 239 0
-101 -146 259 0
-126 -171 279 0
-6 -26 180 0
-31 -51 200 0
-56 -76 220 0
-81 -101 240 0
-106 -126 260 0
-131 -151 280 0
-6 -36 181 0
-31 -61 201 0
-56 -86 221 0
-81 -111 241 0
-106 -136 261 0
-131 -161 281 0
-6 -41 182 0
-31 -66 202 0
-56 -91 222 0
-81 -116 242 0
-106 -141 262 0
-131 -166 282 0
-6 -46 183 0
-31 -71 203 0
-56 -96 223 0
-81 -121 243 0
-106 -146 263 0
-131 -171 283 0
-11 -26 184 0
-36 -51 204 0
-61 -76 224 0
-86 -101 244 0
-111 -126 264 0
-136 -151 284 0
-11 -31 185 0
-36 -56 205 0
-61 -81 225 0
-86 -106 245 0
-111 -131 265 0
-136 -156 285 0
-11 -41 186 0
-36 -66 206 0
-61 -91 226 0
-86 -116 246 0
-111 -141 266 0
-136 -166 286 0
-11 -46 187 0
-36 -71 207 0
-61 -96 227 0
-86 -121 247 0
-111 -146 267 0
-136 -171 287 0
-16 -26 188 0
-41 -51 208 0
-66 -76 228 0
-91 -101 248 0
-116 -126 268 0
-141 -151 288 0
-16 -31 189 0
-41 -56 209 0
-66 -81 229 0
-91 -106 249 0
-116 -131 269 0
-141 -156 289 0
-16 -36 190 0
-41 -61 210 0
-66 -86 230 0
-91 -111 250 0
-116 -136 270 0
-141 -161 290 0
-16 -46 191 0
-41 -71 211 0
-66 -96 231 0
-91 -121 251 0
-116 -146 271 0
-141 -171 291 0
-21 -26 192 0
-46 -51 212 0
-71 -76 232 0
-96 -101 252 0
-121 -126 272 0
-146 -151 292 0
-21 -31 193 0
-46 -56 213 0
-71 -81 233 0
-96 -106 253 0
-121 -131 273 0
-146 -156 293 0
-21 -36 194 0
-46 -61 214 0
-71 -86 234 0
-96 -111 254 0
-121 -136 274 0
-146 -161 294 0
-21 -41 195 0
-46 -66 215 0
-71 -91 235 0
-96 -116 255 0
-121 -141 275 0
-146 -166 295 0
-2 -32 296 0
-27 -57 316 0
-52 -82 336 0
-77 -107 356 0
-102 -132 376 0
-127 -157 396 0
-2 -37 297 0
-27 -62 317 0
-52 -87 337 0
-77 -112 357 0
-102 -137 377 0
-127 -162 397 0
-2 -42 298 0
-27 -67 318 0
-52 -92 338 0
-77 -117 358 0
-102 -142 378 0
-127 -167 398 0
-2 -47 299 0
-27 -72 319 0
-52 -97 339 0
-77 -122 359 0
-102 -147 379 0
-127 -172 399 0
-7 -27 300 0
-32 -52 320 0
-57 -77 340 0
-82 -102 360 0
-107 -127 380 0
-132 -152 400 0
-7 -37 301 0
-32 -62 321 0
-57 -87 341 0
-82 -112 361 0
-107 -137 381 0
-132 -162 401 0
-7 -42 302 0
-32 -67 322 0
-57 -92 342 0
-82 -117 362 0
-107 -142 382 0
-132 -167 402 0
-7 -47 303 0
-32 -72 323 0
-57 -97 343 0
-82 -122 363 0
-107 -147 383 0
-132 -172 403 0
-12 -27 304 0
-37 -52 324 0
-62 -77 344 0
-87 -102 364 0
-112 -127 384 0
-137 -152 404 0
-12 -32 305 0
-37 -57 325 0
-62 -82 345 0
-87 -107 365 0
-112 -132 385 0
-137 -157 405 0
-12 -42 306 0
-37 -67 326 0
-62 -92 346 0
-87 -117 366 0
-112 -142 386 0
-137 -167 406 0
-12 -47 307 0
-37 -72 327 0
-62 -97 347 0
-87 -122 367 0
-112 -147 387 0
-137 -172 407 0
-17 -27 308 0
-42 -52 328 0
-67 -77 348 0
-92 -102 368 0
-117 -127 388 0
-142 -152 408 0
-17 -32 309 0
-42 -57 329 0
-67 -82 349 0
-92 -107 369 0
-117 -132 389 0
-142 -157 409 0
-17 -37 310 0
-42 -62 330 0
-67 -87 350 0
-92 -112 370 0
-117 -137 390 0
-142 -162 410 0
-17 -47 311 0
-42 -72 331 0
-67 -97 351 0
-92 -122 371 0
-117 -147 391 0
-142 -172 411 0
-22 -27 312 0
-47 -52 332 0
-72 -77 352 0
-97 -102 372 0
-122 -127 392 0
-147 -152 412 0
-22 -32 313 0
-47 -57 333 0
-72 -82 353 0
-97 -107 373 0
-122 -132 393 0
-147 -157 413 0
-22 -37 314 0
-47 -62 334 0
-72 -87 354 0
-97 -112 374 0
-122 -137 394 0
-147 -162 414 0
-22 -42 315 0
-47 -67 335 0
-72 -92 355 0
-97 -117 375 0
-122 -142 395 0
-147 -167 415 0
-3 -33 416 0
-28 -58 436 0
-53 -83 456 0
-78 -108 476 0
-103 -133 496 0
-128 -158 516 0
-3 -38 417 0
-28 -63 437 0
-53 -88 457 0
-78 -113 477 0
-103 -138 497 0
-128 -163 517 0
-3 -43 418 0
-28 -68 438 0
-53 -93 458 0
-78 -118 478 0
-103 -143 498 0
-128 -168 518 0
-3 -48 419 0
-28 -73 439 0
-53 -98 459 0
-78 -123 479 0
-103 -148 499 0
-128 -173 519 0
-8 -28 420 0
-33 -53 440 0
-58 -78 460 0
-83 -103 480 0
-108 -128 500 0
-133 -153 520 0
-8 -38 421 0
-33 -63 441 0
-58 -88 461 0
-83 -113 481 0
-108 -138 501 0
-133 -163 521 0
-8 -43 422 0
-33 -68 442 0
-58 -93 462 0
-83 -118 482 0
-108 -143 502 0
-133 -168 522 0
-8 -48 423 0
-33 -73 443 0
-58 -98 463 0
-83 -123 483 0
-108 -148 503 0
-133 -173 523 0
-13 -28 424 0
-38 -53 444 0
-63 -78 464 0
-88 -103 484 0
-113 -128 504 0
-138 -153 524 0
-13 -33 425 0
-38 -58 445 0
-63 -83 465 0
-88 -108 485 0
-113 -133 505 0
-138 -158 525 0
-13 -43 426 0
-38 -68 446 0
-63 -93 466 0
-88 -118 486 0
-113 -143 506 0
-138 -168 526 0
-13 -48 427 0
-38 -73 447 0
-63 -98 467 0
-88 -123 487 0
-113 -148 507 0
-138 -173 527 0
-18 -28 428 0
-43 -53 448 0
-68 -78 468 0
-93 -103 488 0
-118 -128 508 0
-143 -153 528 0
-18 -33 429 0
-43 -58 449 0
-68 -83 469 0
-93 -108 489 0
-118 -133 509 0
-143 -158 529 0
-18 -38 430 0
-43 -63 450 0
-68 -88 470 0
-93 -113 490 0
-118 -138 510 0
-143 -163 530 0
-18 -48 431 0
-43 -73 451 0
-68 -98 471 0
-93 -123 491 0
-118 -148 511 0
-143 -173 531 0
-23 -28 432 0
-48 -53 452 0
-73 -78 472 0
-98 -103 492 0
-123 -128 512 0
-148 -153 532 0
-23 -33 433 0
-48 -58 453 0
-73 -83 473 0
-98 -108 493 0
-123 -133 513 0
-148 -158 533 0
-23 -38 434 0
-48 -63 454 0
-73 -88 474 0
-98 -113 494 0
-123 -138 514 0
-148 -163 534 0
-23 -43 435 0
-48 -68 455 0
-73 -93 475 0
-98 -118 495 0
-123 -143 515 0
-148 -168 535 0
-4 -34 536 0
-29 -59 556 0
-54 -84 576 0
-79 -109 596 0
-104 -134 616 0
-129 -159 636 0
-4 -39 537 0
-29 -64 557 0
-54 -89 577 0
-79 -114 597 0
-104 -139 617 0
-129 -164 637 0
-4 -44 538 0
-29 -69 558 0
-54 -94 578 0
-79 -119 598 0
-104 -144 618 0
-129 -169 638 0
-4 -49 539 0
-29 -74 559 0
-54 -99 579 0
-79 -124 599 0
-104 -149 619 0
-129 -174 639 0
-9 -29 540 0
-34 -54 560 0
-59 -79 580 0
-84 -104 600 0
-109 -129 620 0
-134 -154 640 0
-9 -39 541 0
-34 -64 561 0
-59 -89 581 0
-84 -114 601 0
-109 -139 621 0
-134 -164 641 0
-9 -44 542 0
-34 -69 562 0
-59 -94 582 0
-84 -119 602 0
-109 -144 622 0
-134 -169 642 0
-9 -49 543 0
-34 -74 563 0
-59 -99 583 0
-84 -124 603 0
-109 -149 623 0
-134 -174 643 0
-14 -29 544 0
-39 -54 564 0
-64 -79 584 0
-89 -104 604 0
-114 -129 624 0
-139 -154 644 0
-14 -34 545 0
-39 -59 565 0
-64 -84 585 0
-89 -109 605 0
-114 -134 625 0
-139 -159 645 0
-14 -44 546 0
-39 -69 566 0
-64 -94 586 0
-89 -119 606 0
-114 -144 626 0
-139 -169 646 0
-14 -49 547 0
-39 -74 567 0
-64 -99 587 0
-89 -124 607 0
-114 -149 627 0
-139 -174 647 0
-19 -29 548 0
-44 -54 568 0
-69 -79 588 0
-94 -104 608 0
-119 -129 628 0
-144 -154 648 0
-19 -34 549 0
-44 -59 569 0
-69 -84 589 0
-94 -109 609 0
-119 -134 629 0
-144 -159 649 0
-19 -39 550 0
-44 -64 570 0
-69 -89 590 0
-94 -114 610 0
-119 -139 630 0
-144 -164 650 0
-19 -49 551 0
-44 -74 571 0
-69 -99 591 0
-94 -124 611 0
-119 -149 631 0
-144 -174 651 0
-24 -29 552 0
-49 -54 572 0
-74 -79 592 0
-99 -104 612 0
-124 -129 632 0
-149 -154 652 0
-24 -34 553 0
-49 -59 573 0
-74 -84 593 0
-99 -109 613 0
-124 -134 633 0
-149 -159 653 0
-24 -39 554 0
-49 -64 574 0
-74 -89 594 0
-99 -114 614 0
-124 -139 634 0
-149 -164 654 0
-24 -44 555 0
-49 -69 575 0
-74 -94 595 0
-99 -119 615 0
-124 -144 635 0
-149 -169 655 0
-5 -35 656 0
-30 -60 676 0
-55 -85 696 0
-80 -110 716 0
-105 -135 736 0
-130 -160 756 0
-5 -40 657 0
-30 -65 677 0
-55 -90 697 0
-80 -115 717 0
-105 -140 737 0
-130 -165 757 0
-5 -45 658 0
-30 -70 678 0
-55 -95 698 0
-80 -120 718 0
-105 -145 738 0
-130 -170 758 0
-5 -50 659 0
-30 -75 679 0
-55 -100 699 0
-80 -125 719 0
-105 -150 739 0
-130 -175 759 0
-10 -30 660 0
-35 -55 680 0
-60 -80 700 0
-85 -105 720 0
-110 -130 740 0
-135 -155 760 0
-10 -40 661 0
-35 -65 681 0
-60 -90 701 0
-85 -115 721 0
-110 -140 741 0
-135 -165 761 0
-10 -45 662 0
-35 -70 682 0
-60 -95 702 0
-85 -120 722 0
-110 -145 742 0
-135 -170 762 0
-10 -50 663 0
-35 -75 683 0
-60 -100 703 0
-85 -125 723 0
-110 -150 743 0
-135 -175 763 0
-15 -30 664 0
-40 -55 684 0
-65 -80 704 0
-90 -105 724 0
-115 -130 744 0
-140 -155 764 0
-15 -35 665 0
-40 -60 685 0
-65 -85 705 0
-90 -110 725 0
-115 -135 745 0
-140 -160 765 0
-15 -45 666 0
-40 -70 686 0
-65 -95 706 0
-90 -120 726 0
-115 -145 746 0
-140 -170 766 0
-15 -50 667 0
-40 -75 687 0
-65 -100 707 0
-90 -125 727 0
-115 -150 747 0
-140 -175 767 0
-20 -30 668 0
-45 -55 688 0
-70 -80 708 0
-95 -105 728 0
-120 -130 748 0
-145 -155 768 0
-20 -35 669 0
-45 -60 689 0
-70 -85 709 0
-95 -110 729 0
-120 -135 749 0
-145 -160 769 0
-20 -40 670 0
-45 -65 690 0
-70 -90 710 0
-95 -115 730 0
-120 -140 750 0
-145 -165 770 0
-20 -50 671 0
-45 -75 691 0
-70 -100 711 0
-95 -125 731 0
-120 -150 751 0
-145 -175 771 0
-25 -30 672 0
-50 -55 692 0
-75 -80 712 0
-100 -105 732 0
-125 -130 752 0
-150 -155 772 0
-25 -35 673 0
-50 -60 693 0
-75 -85 713 0
-100 -110 733 0
-125 -135 753 0
-150 -160 773 0
-25 -40 674 0
-50 -65 694 0
-75 -90 714 0
-100 -115 734 0
-125 -140 754 0
-150 -165 774 0
-25 -45 675 0
-50 -70 695 0
-75 -95 715 0
-100 -120 735 0
-125 -145 755 0
-150 -170 775 0
-176 1 0
-176 31 0
-196 26 0
-196 56 0
-216 51 0
-216 81 0
-236 76 0
-236 106 0
-256 101 0
-256 131 0
-276 126 0
-276 156 0
-177 1 0
-177 36 0
-197 26 0
-197 61 0
-217 51 0
-217 86 0
-237 76 0
-237 111 0
-257 101 0
-257 136 0
-277 126 0
-277 161 0
-178 1 0
-178 41 0
-198 26 0
-198 66 0
-218 51 0
-218 91 0
-238 76 0
-238 116 0
-258 101 0
-258 141 0
-278 126 0
-278 166 0
-179 1 0
-179 46 0
-199 26 0
-199 71 0
-219 51 0
-219 96 0
-239 76 0
-239 121 0
-259 101 0
-259 146 0
-279 126 0
-279 171 0
-180 6 0
-180 26 0
-200 31 0
-200 51 0
-220 56 0
-220 76 0
-240 81 0
-240 101 0
-260 106 0
-260 126 0
-280 131 0
-280 151 0
-181 6 0
-181 36 0
-201 31 0
-201 61 0
-221 56 0
-221 86 0
-241 81 0
-241 111 0
-261 106 0
-261 136 0
-281 131 0
-281 161 0
-182 6 0
-182 41 0
-202 31 0
-202 66 0
-222 56 0
-222 91 0
-242 81 0
-242 116 0
-262 106 0
-262 141 0
-282 131 0
-282 166 0
-183 6 0
-183 46 0
-203 31 0
-203 71 0
-223 56 0
-223 96 0
-243 81 0
-243 121 0
-263 106 0
-263 146 0
-283 131 0
-283 171 0
-184 11 0
-184 26 0
-204 36 0
-204 51 0
-224 61 0
-224 76 0
-244 86 0
-244 101 0
-264 111 0
-264 126 0
-284 136 0
-284 151 0
-185 11 0
-185 31 0
-205 36 0
-205 56 0
-225 61 0
-225 81 0
-245 86 0
-245 106 0
-265 111 0
-265 131 0
-285 136 0
-285 156 0
-186 11 0
-186 41 0
-206 36 0
-206 66 0
-226 61 0
-226 91 0
-246 86 0
-246 116 0
-266 111 0
-266 141 0
-286 136 0
-286 166 0
-187 11 0
-187 46 0
-207 36 0
-207 71 0
-227 61 0
-227 96 0
-247 86 0
-247 121 0
-267 111 0
-267 146 0
-287 136 0
-287 171 0
-188 16 0
-188 26 0
-208 41 0
-208 51 0
-228 66 0
-228 76 0
-248 91 0
-248 101 0
-268 116 0
-268 126 0
-288 141 0
-288 151 0
-189 16 0
-189 31 0
-209 41 0
-209 56 0
-229 66 0
-229 81 0
-249 91 0
-249 106 0
-269 116 0
-269 131 0
-289 141 0
-289 156 0
-190 16 0
-190 36 0
-210 41 0
-210 61 0
-230 66 0
-230 86 0
-250 91 0
-250 111 0
-270 116 0
-270 136 0
-290 141 0
-290 161 0
-191 16 0
-191 46 0
-211 41 0
-211 71 0
-231 66 0
-231 96 0
-251 91 0
-251 121 0
-271 116 0
-271 146 0
-291 141 0
-291 171 0
-192 21 0
-192 26 0
-212 46 0
-212 51 0
-232 71 0
-232 76 0
-252 96 0
-252 101 0
-272 121 0
-272 126 0
-292 146 0
-292 151 0
-193 21 0
-193 31 0
-213 46 0
-213 56 0
-233 71 0
-233 81 0
-253 96 0
-253 106 0
-273 121 0
-273 131 0
-293 146 0
-293 156 0
-194 21 0
-194 36 0
-214 46 0
-214 61 0
-234 71 0
-234 86 0
-254 96 0
-254 111 0
-274 121 0
-274 136 0
-294 146 0
-294 161 0
-195 21 0
-195 41 0
-215 46 0
-215 66 0
-235 71 0
-235 91 0
-255 96 0
-255 116 0
-275 121 0
-275 141 0
-295 146 0
-295 166 0
-296 2 0
-296 32 0
-316 27 0
-316 57 0
-336 52 0
-336 82 0
-356 77 0
-356 107 0
-376 102 0
-376 132 0
-396 127 0
-396 157 0
-297 2 0
-297 37 0
-317 27 0
-317 62 0
-337 52 0
-337 87 0
-357 77 0
-357 112 0
-377 102 0
-377 137 0
-397 127 0
-397 162 0
-298 2 0
-298 42 0
-318 27 0
-318 67 0
-338 52 0
-338 92 0
-358 77 0
-358 117 0
-378 102 0
-378 142 0
-398 127 0
-398 167 0
-299 2 0
-299 47 0
-319 27 0
-319 72 0
-339 52 0
-339 97 0
-359 77 0
-359 122 0
-379 102 0
-379 147 0
-399 127 0
-399 172 0
-300 7 0
-300 27 0
-320 32 0
-320 52 0
-340 57 0
-340 77 0
-360 82 0
-360 102 0
-380 107 0
-380 127 0
-400 132 0
-400 152 0
-301 7 0
-301 37 0
-321 32 0
-321 62 0
-341 57 0
-341 87 0
-361 82 0
-361 112 0
-381 107 0
-381 137 0
-401 132 0
-401 162 0
-302 7 0
-302 42 0
-322 32 0
-322 67 0
-342 57 0
-342 92 0
-362 82 0
-362 117 0
-382 107 0
-382 142 0
-402 132 0
-402 167 0
-303 7 0
-303 47 0
-323 32 0
-323 72 0
-343 57 0
-343 97 0
-363 82 0
-363 122 0
-383 107 0
-383 147 0
-403 132 0
-403 172 0
-304 12 0
-304 27 0
-324 37 0
-324 52 0
-344 62 0
-344 77 0
-364 87 0
-364 102 0
-384 112 0
-384 127 0
-404 137 0
-404 152 0
-305 12 0
-305 32 0
-325 37 0
-325 57 0
-345 62 0
-345 82 0
-365 87 0
-365 107 0
-385 112 0
-385 132 0
-405 137 0
-405 157 0
-306 12 0
-306 42 0
-326 37 0
-326 67 0
-346 62 0
-346 92 0
-366 87 0
-366 117 0
-386 112 0
-386 142 0
-406 137 0
-406 167 0
-307 12 0
-307 47 0
-327 37 0
-327 72 0
-347 62 0
-347 97 0
-367 87 0
-367 122 0
-387 112 0
-387 147 0
-407 137 0
-407 172 0
-308 17 0
-308 27 0
-328 42 0
-328 52 0
-348 67 0
-348 77 0
-368 92 0
-368 102 0
-388 117 0
-388 127 0
-408 142 0
-408 152 0
-309 17 0
-309 32 0
-329 42 0
-329 57 0
-349 67 0
-349 82 0
-369 92 0
-369 107 0
-389 117 0
-389 132 0
-409 142 0
-409 157 0
-310 17 0
-310 37 0
-330 42 0
-330 62 0
-350 67 0
-350 87 0
-370 92 0
-370 112 0
-390 117 0
-390 137 0
-410 142 0
-410 162 0
-311 17 0
-311 47 0
-331 42 0
-331 72 0
-351 67 0
-351 97 0
-371 92 0
-371 122 0
-391 117 0
-391 147 0
-411 142 0
-411 172 0
-312 22 0
-312 27 0
-332 47 0
-332 52 0
-352 72 0
-352 77 0
-372 97 0
-372 102 0
-392 122 0
-392 127 0
-412 147 0
-412 152 0
-313 22 0
-313 32 0
-333 47 0
-333 57 0
-353 72 0
-353 82 0
-373 97 0
-373 107 0
-393 122 0
-393 132 0
-413 147 0
-413 157 0
-314 22 0
-314 37 0
-334 47 0
-334 62 0
-354 72 0
-354 87 0
-374 97 0
-374 112 0
-394 122 0
-394 137 0
-414 147 0
-414 162 0
-315 22 0
-315 42 0
-335 47 0
-335 67 0
-355 72 0
-355 92 0
-375 97 0
-375 117 0
-395 122 0
-395 142 0
-415 147 0
-415 167 0
-416 3 0
-416 33 0
-436 28 0
-436 58 0
-456 53 0
-456 83 0
-476 78 0
-476 108 0
-496 103 0
-496 133 0
-516 128 0
-516 158 0
-417 3 0
-417 38 0
-437 28 0
-437 63 0
-457 53 0
-457 88 0
-477 78 0
-477 113 0
-497 103 0
-497 138 0
-517 128 0
-517 163 0
-418 3 0
-418 43 0
-438 28 0
-438 68 0
-458 53 0
-458 93 0
-478 78 0
-478 118 0
-498 103 0
-498 143 0
-518 128 0
-518 168 0
-419 3 0
-419 48 0
-439 28 0
-439 73 0
-459 53 0
-459 98 0
-479 78 0
-479 123 0
-499 103 0
-499 148 0
-519 128 0
-519 173 0
-420 8 0
-420 28 0
-440 33 0
-440 53 0
-460 58 0
-460 78 0
-480 83 0
-480 103 0
-500 108 0
-500 128 0
-520 133 0
-520 153 0
-421 8 0
-421 38 0
-441 33 0
-441 63 0
-461 58 0
-461 88 0
-481 83 0
-481 113 0
-501 108 0
-501 138 0
-521 133 0
-521 163 0
-422 8 0
-422 43 0
-442 33 0
-442 68 0
-462 58 0
-462 93 0
-482 83 0
-482 118 0
-502 108 0
-502 143 0
-522 133 0
-522 168 0
-423 8 0
-423 48 0
-443 33 0
-443 73 0
-463 58 0
-463 98 0
-483 83 0
-483 123 0
-503 108 0
-503 148 0
-523 133 0
-523 173 0
-424 13 0
-424 28 0
-444 38 0
-444 53 0
-464 63 0
-464 78 0
-484 88 0
-484 103 0
-504 113 0
-504 128 0
-524 138 0
-524 153 0
-425 13 0
-425 33 0
-445 38 0
-445 58 0
-465 63 0
-465 83 0
-485 88 0
-485 108 0
-505 113 0
-505 133 0
-525 138 0
-525 158 0
-426 13 0
-426 43 0
-446 38 0
-446 68 0
-466 63 0
-466 93 0
-486 88 0
-486 118 0
-506 113 0
-506 143 0
-526 138 0
-526 168 0
-427 13 0
-427 48 0
-447 38 0
-447 73 0
-467 63 0
-467 98 0
-487 88 0
-487 123 0
-507 113 0
-507 148 0
-527 138 0
-527 173 0
-428 18 0
-428 28 0
-448 43 0
-448 53 0
-468 68 0
-468 78 0
-488 93 0
-488 103 0
-508 118 0
-508 128 0
-528 143 0
-528 153 0
-429 18 0
-429 33 0
-449 43 0
-449 58 0
-469 68 0
-469 83 0
-489 93 0
-489 108 0
-509 118 0
-509 133 0
-529 143 0
-529 158 0
-430 18 0
-430 38 0
-450 43 0
-450 63 0
-470 68 0
-470 88 0
-490 93 0
-490 113 0
-510 118 0
-510 138 0
-530 143 0
-530 163 0
-431 18 0
-431 48 0
-451 43 0
-451 73 0
-471 68 0
-471 98 0
-491 93 0
-491 123 0
-511 118 0
-511 148 0
-531 143 0
-531 173 0
-432 23 0
-432 28 0
-452 48 0
-452 53 0
-472 73 0
-472 78 0
-492 98 0
-492 103 0
-512 123 0
-512 128 0
-532 148 0
-532 153 0
-433 23 0
-433 33 0
-453 48 0
-453 58 0
-473 73 0
-473 83 0
-493 98 0
-493 108 0
-513 123 0
-513 133 0
-533 148 0
-533 158 0
-434 23 0
-434 38 0
-454 48 0
-454 63 0
-474 73 0
-474 88 0
-494 98 0
-494 113 0
-514 123 0
-514 138 0
-534 148 0
-534 163 0
-435 23 0
-435 43 0
-455 48 0
-455 68 0
-475 73 0
-475 93 0
-495 98 0
-495 118 0
-515 123 0
-515 143 0
-535 148 0
-535 168 0
-536 4 0
-536 34 0
-556 29 0
-556 59 0
-576 54 0
-576 84 0
-596 79 0
-596 109 0
-616 104 0
-616 134 0
-636 129 0
-636 159 0
-537 4 0
-537 39 0
-557 29 0
-557 64 0
-577 54 0
-577 89 0
-597 79 0
-597 114 0
-617 104 0
-617 139 0
-637 129 0
-637 164 0
-538 4 0
-538 44 0
-558 29 0
-558 69 0
-578 54 0
-578 94 0
-598 79 0
-598 119 0
-618 104 0
-618 144 0
-638 129 0
-638 169 0
-539 4 0
-539 49 0
-559 29 0
-559 74 0
-579 54 0
-579 99 0
-599 79 0
-599 124 0
-619 104 0
-619 149 0
-639 129 0
-639 174 0
-540 9 0
-540 29 0
-560 34 0
-560 54 0
-580 59 0
-580 79 0
-600 84 0
-600 104 0
-620 109 0
-620 129 0
-640 134 0
-640 154 0
-541 9 0
-541 39 0
-561 34 0
-561 64 0
-581 59 0
-581 89 0
-601 84 0
-601 114 0
-621 109 0
-621 139 0
-641 134 0
-641 164 0
-542 9 0
-542 44 0
-562 34 0
-562 69 0
-582 59 0
-582 94 0
-602 84 0
-602 119 0
-622 109 0
-622 144 0
-642 134 0
-642 169 0
-543 9 0
-543 49 0
-563 34 0
-563 74 0
-583 59 0
-583 99 0
-603 84 0
-603 124 0
-623 109 0
-623 149 0
-643 134 0
-643 174 0
-544 14 0
-544 29 0
-564 39 0
-564 54 0
-584 64 0
-584 79 0
-604 89 0
-604 104 0
-624 114 0
-624 129 0
-644 139 0
-644 154 0
-545 14 0
-545 34 0
-565 39 0
-565 59 0
-585 64 0
-585 84 0
-605 89 0
-605 109 0
-625 114 0
-625 134 0
-645 139 0
-645 159 0
-546 14 0
-546 44 0
-566 39 0
-566 69 0
-586 64 0
-586 94 0
-606 89 0
-606 119 0
-626 114 0
-626 144 0
-646 139 0
-646 169 0
-547 14 0
-547 49 0
-567 39 0
-567 74 0
-587 64 0
-587 99 0
-607 89 0
-607 124 0
-627 114 0
-627 149 0
-647 139 0
-647 174 0
-548 19 0
-548 29 0
-568 44 0
-568 54 0
-588 69 0
-588 79 0
-608 94 0
-608 104 0
-628 119 0
-628 129 0
-648 144 0
-648 154 0
-549 19 0
-549 34 0
-569 44 0
-569 59 0
-589 69 0
-589 84 0
-609 94 0
-609 109 0
-629 119 0
-629 134 0
-649 144 0
-649 159 0
-550 19 0
-550 39 0
-570 44 0
-570 64 0
-590 69 0
-590 89 0
-610 94 0
-610 114 0
-630 119 0
-630 139 0
-650 144 0
-650 164 0
-551 19 0
-551 49 0
-571 44 0
-571 74 0
-591 69 0
-591 99 0
-611 94 0
-611 124 0
-631 119 0
-631 149 0
-651 144 0
-651 174 0
-552 24 0
-552 29 0
-572 49 0
-572 54 0
-592 74 0
-592 79 0
-612 99 0
-612 104 0
-632 124 0
-632 129 0
-652 149 0
-652 154 0
-553 24 0
-553 34 0
-573 49 0
-573 59 0
-593 74 0
-593 84 0
-613 99 0
-613 109 0
-633 124 0
-633 134 0
-653 149 0
-653 159 0
-554 24 0
-554 39 0
-574 49 0
-574 64 0
-594 74 0
-594 89 0
-614 99 0
-614 114 0
-634 124 0
-634 139 0
-654 149 0
-654 164 0
-555 24 0
-555 44 0
-575 49 0
-575 69 0
-595 74 0
-595 94 0
-615 99 0
-615 119 0
-635 124 0
-635 144 0
-655 149 0
-655 169 0
-656 5 0
-656 35 0
-676 30 0
-676 60 0
-696 55 0
-696 85 0
-716 80 0
-716 110 0
-736 105 0
-736 135 0
-756 130 0
-756 160 0
-657 5 0
-657 40 0
-677 30 0
-677 65 0
-697 55 0
-697 90 0
-717 80 0
-717 115 0
-737 105 0
-737 140 0
-757 130 0
-757 165 0
-658 5 0
-658 45 0
-678 30 0
-678 70 0
-698 55 0
-698 95 0
-718 80 0
-718 120 0
-738 105 0
-738 145 0
-758 130 0
-758 170 0
-659 5 0
-659 50 0
-679 30 0
-679 75 0
-699 55 0
-699 100 0
-719 80 0
-719 125 0
-739 105 0
-739 150 0
-759 130 0
-759 175 0
-660 10 0
-660 30 0
-680 35 0
-680 55 0
-700 60 0
-700 80 0
-720 85 0
-720 105 0
-740 110 0
-740 130 0
-760 135 0
-760 155 0
-661 10 0
-661 40 0
-681 35 0
-681 65 0
-701 60 0
-701 90 0
-721 85 0
-721 115 0
-741 110 0
-741 140 0
-761 135 0
-761 165 0
-662 10 0
-662 45 0
-682 35 0
-682 70 0
-702 60 0
-702 95 0
-722 85 0
-722 120 0
-742 110 0
-742 145 0
-762 135 0
-762 170 0
-663 10 0
-663 50 0
-683 35 0
-683 75 0
-703 60 0
-703 100 0
-723 85 0
-723 125 0
-743 110 0
-743 150 0
-763 135 0
-763 175 0
-664 15 0
-664 30 0
-684 40 0
-684 55 0
-704 65 0
-704 80 0
-724 90 0
-724 105 0
-744 115 0
-744 130 0
-764 140 0
-764 155 0
-665 15 0
-665 35 0
-685 40 0
-685 60 0
-705 65 0
-705 85 0
-725 90 0
-725 110 0
-745 115 0
-745 135 0
-765 140 0
-765 160 0
-666 15 0
-666 45 0
-686 40 0
-686 70 0
-706 65 0
-706 95 0
-726 90 0
-726 120 0
-746 115 0
-746 145 0
-766 140 0
-766 170 0
-667 15 0
-667 50 0
-687 40 0
-687 75 0
-707 65 0
-707 100 0
-727 90 0
-727 125 0
-747 115 0
-747 150 0
-767 140 0
-767 175 0
-668 20 0
-668 30 0
-688 45 0
-688 55 0
-708 70 0
-708 80 0
-728 95 0
-728 105 0
-748 120 0
-748 130 0
-768 145 0
-768 155 0
-669 20 0
-669 35 0
-689 45 0
-689 60 0
-709 70 0
-709 85 0
-729 95 0
-729 110 0
-749 120 0
-749 135 0
-769 145 0
-769 160 0
-670 20 0
-670 40 0
-690 45 0
-690 65 0
-710 70 0
-710 90 0
-730 95 0
-730 115 0
-750 120 0
-750 140 0
-770 145 0
-770 165 0
-671 20 0
-671 50 0
-691 45 0
-691 75 0
-711 70 0
-711 100 0
-731 95 0
-731 125 0
-751 120 0
-751 150 0
-771 145 0
-771 175 0
-672 25 0
-672 30 0
-692 50 0
-692 55 0
-712 75 0
-712 80 0
-732 100 0
-732 105 0
-752 125 0
-752 130 0
-772 150 0
-772 155 0
-673 25 0
-673 35 0
-693 50 0
-693 60 0
-713 75 0
-713 85 0
-733 100 0
-733 110 0
-753 125 0
-753 135 0
-773 150 0
-773 160 0
-674 25 0
-674 40 0
-694 50 0
-694 65 0
-714 75 0
-714 90 0
-734 100 0
-734 115 0
-754 125 0
-754 140 0
-774 150 0
-774 165 0
-675 25 0
-675 45 0
-695 50 0
-695 70 0
-715 75 0
-715 95 0
-735 100 0
-735 120 0
-755 125 0
-755 145 0
-775 150 0
-775 170 0
-176 -200 0
-196 -220 0
-216 -240 0
-236 -260 0
-256 -280 0
-176 -202 0
-196 -222 0
-216 -242 0
-236 -262 0
-256 -282 0
-178 -209 0
-198 -229 0
-218 -249 0
-238 -269 0
-258 -289 0
-178 -210 0
-198 -230 0
-218 -250 0
-238 -270 0
-258 -290 0
-180 -196 0
-200 -216 0
-220 -236 0
-240 -256 0
-260 -276 0
-180 -198 0
-200 -218 0
-220 -238 0
-240 -258 0
-260 -278 0
-182 -208 0
-202 -228 0
-222 -248 0
-242 -268 0
-262 -288 0
-182 -209 0
-202 -229 0
-222 -249 0
-242 -269 0
-262 -289 0
-182 -210 0
-202 -230 0
-222 -250 0
-242 -270 0
-262 -290 0
-186 -208 0
-206 -228 0
-226 -248 0
-246 -268 0
-266 -288 0
-186 -209 0
-206 -229 0
-226 -249 0
-246 -269 0
-266 -289 0
-186 -210 0
-206 -230 0
-226 -250 0
-246 -270 0
-266 -290 0
-188 -196 0
-208 -216 0
-228 -236 0
-248 -256 0
-268 -276 0
-189 -200 0
-209 -220 0
-229 -240 0
-249 -260 0
-269 -280 0
-189 -202 0
-209 -222 0
-229 -242 0
-249 -262 0
-269 -282 0
-190 -206 0
-210 -226 0
-230 -246 0
-250 -266 0
-270 -286 0
-296 -320 0
-316 -340 0
-336 -360 0
-356 -380 0
-376 -400 0
-296 -322 0
-316 -342 0
-336 -362 0
-356 -382 0
-376 -402 0
-298 -329 0
-318 -349 0
-338 -369 0
-358 -389 0
-378 -409 0
-298 -330 0
-318 -350 0
-338 -370 0
-358 -390 0
-378 -410 0
-300 -316 0
-320 -336 0
-340 -356 0
-360 -376 0
-380 -396 0
-300 -318 0
-320 -338 0
-340 -358 0
-360 -378 0
-380 -398 0
-302 -328 0
-322 -348 0
-342 -368 0
-362 -388 0
-382 -408 0
-302 -329 0
-322 -349 0
-342 -369 0
-362 -389 0
-382 -409 0
-302 -330 0
-322 -350 0
-342 -370 0
-362 -390 0
-382 -410 0
-306 -328 0
-326 -348 0
-346 -368 0
-366 -388 0
-386 -408 0
-306 -329 0
-326 -349 0
-346 -369 0
-366 -389 0
-386 -409 0
-306 -330 0
-326 -350 0
-346 -370 0
-366 -390 0
-386 -410 0
-308 -316 0
-328 -336 0
-348 -356 0
-368 -376 0
-388 -396 0
-309 -320 0
-329 -340 0
-349 -360 0
-369 -380 0
-389 -400 0
-309 -322 0
-329 -342 0
-349 -362 0
-369 -382 0
-389 -402 0
-310 -326 0
-330 -346 0
-350 -366 0
-370 -386 0
-390 -406 0
-416 -440 0
-436 -460 0
-456 -480 0
-476 -500 0
-496 -520 0
-416 -442 0
-436 -462 0
-456 -482 0
-476 -502 0
-496 -522 0
-418 -449 0
-438 -469 0
-458 -489 0
-478 -509 0
-498 -529 0
-418 -450 0
-438 -470 0
-458 -490 0
-478 -510 0
-498 -530 0
-420 -436 0
-440 -456 0
-460 -476 0
-480 -496 0
-500 -516 0
-420 -438 0
-440 -458 0
-460 -478 0
-480 -498 0
-500 -518 0
-422 -448 0
-442 -468 0
-462 -488 0
-482 -508 0
-502 -528 0
-422 -449 0
-442 -469 0
-462 -489 0
-482 -509 0
-502 -529 0
-422 -450 0
-442 -470 0
-462 -490 0
-482 -510 0
-502 -530 0
-426 -448 0
-446 -468 0
-466 -488 0
-486 -508 0
-506 -528 0
-426 -449 0
-446 -469 0
-466 -489 0
-486 -509 0
-506 -529 0
-426 -450 0
-446 -470 0
-466 -490 0
-486 -510 0
-506 -530 0
-428 -436 0
-448 -456 0
-468 -476 0
-488 -496 0
-508 -516 0
-429 -440 0
-449 -460 0
-469 -480 0
-489 -500 0
-509 -520 0
-429 -442 0
-449 -462 0
-469 -482 0
-489 -502 0
-509 -522 0
-430 -446 0
-450 -466 0
-470 -486 0
-490 -506 0
-510 -526 0
-536 -560 0
-556 -580 0
-576 -600 0
-596 -620 0
-616 -640 0
-536 -562 0
-556 -582 0
-576 -602 0
-596 -622 0
-616 -642 0
-538 -569 0
-558 -589 0
-578 -609 0
-598 -629 0
-618 -649 0
-538 -570 0
-558 -590 0
-578 -610 0
-598 -630 0
-618 -650 0
-540 -556 0
-560 -576 0
-580 -596 0
-600 -616 0
-620 -636 0
-540 -558 0
-560 -578 0
-580 -598 0
-600 -618 0
-620 -638 0
-542 -568 0
-562 -588 0
-582 -608 0
-602 -628 0
-622 -648 0
-542 -569 0
-562 -589 0
-582 -609 0
-602 -629 0
-622 -649 0
-542 -570 0
-562 -590 0
-582 -610 0
-602 -630 0
-622 -650 0
-546 -568 0
-566 -588 0
-586 -608 0
-606 -628 0
-626 -648 0
-546 -569 0
-566 -589 0
-586 -609 0
-606 -629 0
-626 -649 0
-546 -570 0
-566 -590 0
-586 -610 0
-606 -630 0
-626 -650 0
-548 -556 0
-568 -576 0
-588 -596 0
-608 -616 0
-628 -636 0
-549 -560 0
-569 -580 0
-589 -600 0
-609 -620 0
-629 -640 0
-549 -562 0
-569 -582 0
-589 -602 0
-609 -622 0
-629 -642 0
-550 -566 0
-570 -586 0
-590 -606 0
-610 -626 0
-630 -646 0
-656 -680 0
-676 -700 0
-696 -720 0
-716 -740 0
-736 -760 0
-656 -682 0
-676 -702 0
-696 -722 0
-716 -742 0
-736 -762 0
-658 -689 0
-678 -709 0
-698 -729 0
-718 -749 0
-738 -769 0
-658 -690 0
-678 -710 0
-698 -730 0
-718 -750 0
-738 -770 0
-660 -676 0
-680 -696 0
-700 -716 0
-720 -736 0
-740 -756 0
-660 -678 0
-680 -698 0
-700 -718 0
-720 -738 0
-740 -758 0
-662 -688 0
-682 -708 0
-702 -728 0
-722 -748 0
-742 -768 0
-662 -689 0
-682 -709 0
-702 -729 0
-722 -749 0
-742 -769 0
-662 -690 0
-682 -710 0
-702 -730 0
-722 -750 0
-742 -770 0
-666 -688 0
-686 -708 0
-706 -728 0
-726 -748 0
-746 -768 0
-666 -689 0
-686 -709 0
-706 -729 0
-726 -749 0
-746 -769 0
-666 -690 0
-686 -710 0
-706 -730 0
-726 -750 0
-746 -770 0
-668 -676 0
-688 -696 0
-708 -716 0
-728 -736 0
-748 -756 0
-669 -680 0
-689 -700 0
-709 -720 0
-729 -740 0
-749 -760 0
-669 -682 0
-689 -702 0
-709 -722 0
-729 -742 0
-749 -762 0
-670 -686 0
-690 -706 0
-710 -726 0
-730 -746 0
-750 -766 0
